param n := 15;
param H := 140;

param r :=
  1 81
  2 94
  3 28
  4 86
  5 75
  6 3
  7 29
  8 71
  9 28
  10 0
  11 43
  12 27
  13 11
  14 45
  15 5
;

param p :=
  1 1
  2 3
  3 2
  4 5
  5 4
  6 1
  7 5
  8 2
  9 4
  10 2
  11 3
  12 3
  13 4
  14 3
  15 4
;

param d :=
  1 82
  2 97
  3 30
  4 91
  5 79
  6 4
  7 34
  8 73
  9 33
  10 2
  11 46
  12 30
  13 15
  14 49
  15 9
;
